5015
4804
4988
9532
9488
8850
4584
4839
6562
6058
5877
8374
1808
446
9317
8150
2253
3008
9211
1588
8847
7516
7712
9751
8636
9792
6942
9407
5381
7941
1678
4386
2842
4640
3284
3634
883
1040
8954
4840
1796
643
4934
7991
5052
4728
2946
946
8959
8004
